c instance by G2
c solution = 0101100100101100111110100
c Known solution cost is 1168 
p cnf 25 30
w 50 90 24 19 8 54 80 38 77 9 51 19 74 86 26 36 89 39 20 20 46 44 73 48 48
-8 23 1 0
15 -14 -16 0
-8 20 -17 0
2 19 -12 0
-21 7 -12 0
-25 -11 3 0
-8 -23 18 0
19 16 7 0
-6 7 -4 0
14 -22 23 0
-20 -1 6 0
2 24 10 0
-19 -22 15 0
8 3 -5 0
1 -15 -19 0
16 -24 25 0
11 -14 -19 0
-14 4 10 0
-15 -24 6 0
22 10 -9 0
24 12 13 0
21 16 12 0
-20 17 24 0
-21 15 -3 0
-19 20 -2 0
-14 -1 -4 0
1 14 24 0
-2 -4 -10 0
-7 -5 -14 0
5 -8 -11 0
